benchmarks_vrp/CMT4/fixed_c_size/CMT4_2.vrp
NAME: CMT4_2
TYPE: CVRP
COMMENT: 1028.42 - Cluster Nr.2
DIMENSION: 18
CAPACITY: 200
EDGE_WEIGHT_TYPE: EUC_2D
NODE_COORD_TYPE: TWOD_COORDS
NODE_COORD_SECTION: 
2 56 37
7 64 42
14 62 42
16 65 35
9 61 33
8 50 35
17 52 33
18 35 35
10 57 29
11 58 27
1 48 28
3 52 41
4 45 30
5 45 35
15 56 37
6 56 39
12 53 43
13 49 42
DEPOT_SECTION: 
18
-1
DEMAND_SECTION: 
17 11
15 6
9 26
12 14
4 17
2 10
1 18
7 9
14 8
5 15
16 3
18 0
13 13
10 18
3 15
8 19
11 19
6 36
EOF
