benchmarks_vrp/CMT4/fixed_c_size/CMT4_2.tour
NAME: CMT4_2 solution
TYPE: TOUR
TOUR_SECTION:
18 5 8 1 4 -1
18 13 3 12 6 2 15 14 7 16 9 11 10 17 -1
-1
EOF